NAME : portcgen-21-7
COMMENT : portcgen N=21, seed=7
TYPE : TSP
DIMENSION : 21
EDGE_WEIGHT_TYPE : EUC_2D
NODE_COORD_SECTION
1 139346 -197081
2 -59199 353296
3 170669 -65681
4 -262039 -276347
5 -369294 94080
6 -18944 -184771
7 -422657 -232342
8 202668 203384
9 -10976 -245877
10 846 -39681
11 140127 -25807
12 24783 -340845
13 -528949 175539
14 -322531 218057
15 409982 301842
16 -100744 134049
17 -75411 -263596
18 -34906 -235279
19 -435450 -109565
20 302455 -154338
21 61056 369304
